*SPEF "IEEE 1481-1998"
*DESIGN "reg_adder"
*DATE "Wed Feb 18 20:32:45 2026"
*VENDOR "Cadence Design Systems, Inc."
*PROGRAM "Innovus"
*VERSION "21.15-s110_1"
*DESIGN_FLOW "PIN_CAP NONE" "NAME_SCOPE LOCAL"
*DIVIDER /
*DELIMITER :
*BUS_DELIMITER []
*T_UNIT 1 NS
*C_UNIT 1 PF
*R_UNIT 1 OHM
*L_UNIT 1 HENRY

// MMMC spef file for corner 'rc_typ'

*NAME_MAP

*1 clk
*2 rst
*3 a[7]
*4 a[6]
*5 a[5]
*6 a[4]
*7 a[3]
*8 a[2]
*9 a[1]
*10 a[0]
*11 b[7]
*12 b[6]
*13 b[5]
*14 b[4]
*15 b[3]
*16 b[2]
*17 b[1]
*18 b[0]
*19 sum_q[8]
*20 sum_q[7]
*21 sum_q[6]
*22 sum_q[5]
*23 sum_q[4]
*24 sum_q[3]
*25 sum_q[2]
*26 sum_q[1]
*27 sum_q[0]
*28 a_reg[7]
*29 a_reg[6]
*30 a_reg[5]
*31 a_reg[4]
*32 a_reg[3]
*33 a_reg[2]
*34 a_reg[1]
*35 a_reg[0]
*36 b_reg[7]
*37 b_reg[6]
*38 b_reg[5]
*39 b_reg[4]
*40 b_reg[3]
*41 b_reg[2]
*42 b_reg[1]
*43 b_reg[0]
*44 UNCONNECTED
*45 UNCONNECTED0
*46 UNCONNECTED1
*47 UNCONNECTED2
*48 UNCONNECTED3
*49 UNCONNECTED4
*50 UNCONNECTED5
*51 UNCONNECTED6
*52 UNCONNECTED7
*53 UNCONNECTED8
*54 UNCONNECTED9
*55 UNCONNECTED10
*56 UNCONNECTED11
*57 UNCONNECTED12
*58 UNCONNECTED13
*59 UNCONNECTED14
*60 UNCONNECTED15
*61 UNCONNECTED16
*62 UNCONNECTED17
*63 UNCONNECTED18
*64 UNCONNECTED19
*65 UNCONNECTED20
*66 UNCONNECTED21
*67 n_0
*68 n_1
*69 n_2
*70 n_3
*71 n_4
*72 n_5
*73 n_6
*74 n_7
*75 n_8
*76 n_9
*77 n_10
*78 n_11
*79 n_12
*80 n_13
*81 n_14
*82 n_15
*83 n_16
*84 n_17
*85 n_18
*86 sum_q_reg\[8\]
*87 sum_q_reg\[7\]
*88 g723__2398
*89 sum_q_reg\[6\]
*90 g725__5107
*91 sum_q_reg\[5\]
*92 g727__6260
*93 sum_q_reg\[4\]
*94 g729__4319
*95 sum_q_reg\[3\]
*96 g731__8428
*97 sum_q_reg\[2\]
*98 g733__5526
*99 sum_q_reg\[1\]
*100 g735__6783
*101 sum_q_reg\[0\]
*102 g738__3680
*103 g737__1617
*104 a_reg_reg\[4\]
*105 b_reg_reg\[6\]
*106 b_reg_reg\[5\]
*107 a_reg_reg\[3\]
*108 a_reg_reg\[1\]
*109 a_reg_reg\[2\]
*110 a_reg_reg\[0\]
*111 b_reg_reg\[0\]
*112 b_reg_reg\[3\]
*113 a_reg_reg\[5\]
*114 b_reg_reg\[2\]
*115 a_reg_reg\[6\]
*116 b_reg_reg\[7\]
*117 a_reg_reg\[7\]
*118 b_reg_reg\[1\]
*119 b_reg_reg\[4\]
*120 g757


*PORTS

*1 I *C 0 0
*2 I *C 0 0
*3 I *C 0 0
*4 I *C 0 0
*5 I *C 0 0
*6 I *C 0 0
*7 I *C 0 0
*8 I *C 0 0
*9 I *C 0 0
*10 I *C 0 0
*11 I *C 0 0
*12 I *C 0 0
*13 I *C 0 0
*14 I *C 0 0
*15 I *C 0 0
*16 I *C 0 0
*17 I *C 0 0
*18 I *C 0 0
*19 O *C 0 0
*20 O *C 0 0
*21 O *C 0 0
*22 O *C 0 0
*23 O *C 0 0
*24 O *C 0 0
*25 O *C 0 0
*26 O *C 0 0
*27 O *C 0 0


*D_NET *1 0.0153698

*CONN
*P *1 I *C 0 0 *L 0
*I *119:CK I *C 12.1 23.05 *L 0.000577 *D DFFTRXL
*I *118:CK I *C 26.5 12.79 *L 0.000577 *D DFFTRXL
*I *117:CK I *C 17.1 24.45 *L 0.000577 *D DFFTRXL
*I *116:CK I *C 11.9 26.47 *L 0.000577 *D DFFTRXL
*I *115:CK I *C 26.7 26.47 *L 0.000577 *D DFFTRXL
*I *114:CK I *C 16.7 12.79 *L 0.000577 *D DFFTRXL
*I *113:CK I *C 26.5 23.05 *L 0.000577 *D DFFTRXL
*I *112:CK I *C 17.1 19.63 *L 0.000577 *D DFFTRXL
*I *111:CK I *C 22.1 17.61 *L 0.000577 *D DFFTRXL
*I *110:CK I *C 26.3 16.21 *L 0.000577 *D DFFTRXL
*I *109:CK I *C 12.1 14.19 *L 0.000577 *D DFFTRXL
*I *108:CK I *C 26.5 14.19 *L 0.000577 *D DFFTRXL
*I *107:CK I *C 12.1 17.61 *L 0.000577 *D DFFTRXL
*I *106:CK I *C 17.3 23.05 *L 0.000577 *D DFFTRXL
*I *105:CK I *C 26.5 24.45 *L 0.000577 *D DFFTRXL
*I *104:CK I *C 15.9 21.03 *L 0.000577 *D DFFTRXL
*I *101:CK I *C 22.5 19.63 *L 0.000577 *D DFFTRXL
*I *99:CK I *C 21.7 12.79 *L 0.000577 *D DFFTRXL
*I *97:CK I *C 11.9 12.79 *L 0.000577 *D DFFTRXL
*I *95:CK I *C 18.3 16.21 *L 0.000577 *D DFFTRXL
*I *93:CK I *C 11.9 19.63 *L 0.000577 *D DFFTRXL
*I *91:CK I *C 22.3 21.03 *L 0.000577 *D DFFTRXL
*I *89:CK I *C 21.9 27.87 *L 0.000577 *D DFFTRXL
*I *87:CK I *C 11.9 24.45 *L 0.000577 *D DFFTRXL
*I *86:CK I *C 16.7 27.87 *L 0.000577 *D DFFTRXL

*CAP
1 *1 0.00294022
2 *119:CK 2.382e-05
3 *118:CK 0.00016672
4 *117:CK 0.00057399
5 *116:CK 0.00024055
6 *115:CK 2.382e-05
7 *114:CK 0.00045491
8 *113:CK 0.00016672
9 *112:CK 0.00057399
10 *111:CK 0.00043109
11 *110:CK 0.00076453
12 *109:CK 0.00057399
13 *108:CK 0.00043109
14 *107:CK 0.00067164
15 *106:CK 2.382e-05
16 *105:CK 0.00040727
17 *104:CK 0.00061924
18 *101:CK 2.382e-05
19 *99:CK 0.00040727
20 *97:CK 0.00296404
21 *95:CK 0.00054779
22 *93:CK 0.00043109
23 *91:CK 0.00016672
24 *89:CK 0.00128612
25 *87:CK 0.00040727
26 *86:CK 4.763e-05
27 *1:26 1e-08
28 *1:27 2e-08
29 *1:28 3e-08
30 *1:29 4e-08
31 *1:30 5e-08
32 *1:31 6e-08
33 *1:32 7e-08
34 *1:33 8e-08
35 *1:34 9e-08
36 *1:35 1e-07
37 *1:36 1.1e-07

*RES
1 *1:29 *1:27 0.849924
2 *112:CK *1:28 10.2601
3 *1:32 *115:CK 0.600146
4 *1:32 *105:CK 6.06023
5 *105:CK *113:CK 4.19989
6 *110:CK *108:CK 6.66038
7 *108:CK *118:CK 4.19989
8 *1:27 *110:CK 12.5997
9 *1:33 *101:CK 0.600146
10 *1:33 *91:CK 4.19989
11 *1:27 *111:CK 4.19989
12 *1:31 *89:CK 14.4001
13 *1:29 *99:CK 10.2601
14 *1:28 *95:CK 3.59975
15 *1:26 *106:CK 0.600146
16 *1:26 *117:CK 4.19989
17 *1:30 *112:CK 4.19989
18 *1:31 *86:CK 1.20029
19 *1:28 *114:CK 11.4604
20 *1:30 *104:CK 3.59975
21 *1:35 *119:CK 0.600146
22 *93:CK *107:CK 6.66038
23 *107:CK *109:CK 10.2601
24 *87:CK *116:CK 6.06023
25 *1:35 *87:CK 4.19989
26 *1:36 *93:CK 4.19989
27 *1:34 *97:CK 0.600146
28 *97:CK *1 74.0699997
29 *95:CK *1:29 10.2002
30 *1:26 *1:30 4.29257
31 *117:CK *1:31 10.2601
32 *89:CK *1:32 17.9999
33 *111:CK *1:33 6.66038
34 *109:CK *1:34 4.19989
35 *1:36 *1:35 4.29257
36 *104:CK *1:36 11.9995
*END

*D_NET *2 0.00877228

*CONN
*P *2 I *C 0 0 *L 0
*I *120:A I *C 20.1 17.955 *L 0.000829 *D INVX1

*CAP
1 *2 0.00438614
2 *120:A 0.00438614

*RES
1 *2 *120:A 80.8669
*END

*D_NET *3 0.0102856

*CONN
*P *3 I *C 0 0 *L 0
*I *117:RN I *C 19.99 24.63 *L 0.00055 *D DFFTRXL

*CAP
1 *3 0.00514281
2 *117:RN 0.00514281

*RES
1 *3 *117:RN 94.8175
*END

*D_NET *4 0.0128812

*CONN
*P *4 I *C 0 0 *L 0
*I *115:RN I *C 29.59 26.29 *L 0.00055 *D DFFTRXL

*CAP
1 *4 0.00644061
2 *115:RN 0.00644061

*RES
1 *4 *115:RN 118.745
*END

*D_NET *5 0.0120468

*CONN
*P *5 I *C 0 0 *L 0
*I *113:RN I *C 29.39 22.87 *L 0.00055 *D DFFTRXL

*CAP
1 *5 0.00602338
2 *113:RN 0.00602338

*RES
1 *5 *113:RN 111.052
*END

*D_NET *6 0.00922062

*CONN
*P *6 I *C 0 0 *L 0
*I *104:RN I *C 18.79 21.21 *L 0.00055 *D DFFTRXL

*CAP
1 *6 0.00461031
2 *104:RN 0.00461031

*RES
1 *6 *104:RN 85
*END

*D_NET *7 0.0075563

*CONN
*P *7 I *C 0 0 *L 0
*I *107:RN I *C 14.99 17.79 *L 0.00055 *D DFFTRXL

*CAP
1 *7 0.00377815
2 *107:RN 0.00377815

*RES
1 *7 *107:RN 69.6575
*END

*D_NET *8 0.00676794

*CONN
*P *8 I *C 0 0 *L 0
*I *109:RN I *C 14.99 14.37 *L 0.00055 *D DFFTRXL

*CAP
1 *8 0.00338397
2 *109:RN 0.00338397

*RES
1 *8 *109:RN 62.39
*END

*D_NET *9 0.0100874

*CONN
*P *9 I *C 0 0 *L 0
*I *108:RN I *C 29.39 14.37 *L 0.00055 *D DFFTRXL

*CAP
1 *9 0.00504368
2 *108:RN 0.00504368

*RES
1 *9 *108:RN 92.99
*END

*D_NET *10 0.0104239

*CONN
*P *10 I *C 0 0 *L 0
*I *110:RN I *C 29.19 16.03 *L 0.00055 *D DFFTRXL

*CAP
1 *10 0.00521196
2 *110:RN 0.00521196

*RES
1 *10 *110:RN 96.0925
*END

*D_NET *11 0.00946958

*CONN
*P *11 I *C 0 0 *L 0
*I *116:RN I *C 14.79 26.29 *L 0.00055 *D DFFTRXL

*CAP
1 *11 0.00473479
2 *116:RN 0.00473479

*RES
1 *11 *116:RN 87.295
*END

*D_NET *12 0.0124525

*CONN
*P *12 I *C 0 0 *L 0
*I *105:RN I *C 29.39 24.63 *L 0.00055 *D DFFTRXL

*CAP
1 *12 0.00622623
2 *105:RN 0.00622623

*RES
1 *12 *105:RN 114.793
*END

*D_NET *13 0.009926

*CONN
*P *13 I *C 0 0 *L 0
*I *106:RN I *C 20.19 22.87 *L 0.00055 *D DFFTRXL

*CAP
1 *13 0.004963
2 *106:RN 0.004963

*RES
1 *13 *106:RN 91.5025
*END

*D_NET *14 0.00872732

*CONN
*P *14 I *C 0 0 *L 0
*I *119:RN I *C 14.99 22.87 *L 0.00055 *D DFFTRXL

*CAP
1 *14 0.00436366
2 *119:RN 0.00436366

*RES
1 *14 *119:RN 80.4525
*END

*D_NET *15 0.00909154

*CONN
*P *15 I *C 0 0 *L 0
*I *112:RN I *C 19.99 19.45 *L 0.00055 *D DFFTRXL

*CAP
1 *15 0.00454577
2 *112:RN 0.00454577

*RES
1 *15 *112:RN 83.81
*END

*D_NET *16 0.0074226

*CONN
*P *16 I *C 0 0 *L 0
*I *114:RN I *C 19.59 12.61 *L 0.00055 *D DFFTRXL

*CAP
1 *16 0.0037113
2 *114:RN 0.0037113

*RES
1 *16 *114:RN 68.425
*END

*D_NET *17 0.00968166

*CONN
*P *17 I *C 0 0 *L 0
*I *118:RN I *C 29.39 12.61 *L 0.00055 *D DFFTRXL

*CAP
1 *17 0.00484083
2 *118:RN 0.00484083

*RES
1 *17 *118:RN 89.25
*END

*D_NET *18 0.00986146

*CONN
*P *18 I *C 0 0 *L 0
*I *111:RN I *C 24.99 17.79 *L 0.00055 *D DFFTRXL

*CAP
1 *18 0.00493073
2 *111:RN 0.00493073

*RES
1 *18 *111:RN 90.9075
*END

*D_NET *19 0.0102833

*CONN
*P *19 O *C 0 0 *L 0
*I *86:Q O *C 16.375 28.235 *L 0 *D DFFTRXL

*CAP
1 *19 0.00514165
2 *86:Q 0.00514165

*RES
1 *19 *86:Q 94.7962
*END

*D_NET *20 0.00838846

*CONN
*P *20 O *C 0 0 *L 0
*I *87:Q O *C 11.575 24.815 *L 0 *D DFFTRXL

*CAP
1 *20 0.00419423
2 *87:Q 0.00419423

*RES
1 *20 *87:Q 77.3288
*END

*D_NET *21 0.011482

*CONN
*P *21 O *C 0 0 *L 0
*I *89:Q O *C 21.575 28.235 *L 0 *D DFFTRXL

*CAP
1 *21 0.00574099
2 *89:Q 0.00574099

*RES
1 *21 *89:Q 105.846
*END

*D_NET *22 0.00999746

*CONN
*P *22 O *C 0 0 *L 0
*I *91:Q O *C 21.975 21.395 *L 0 *D DFFTRXL

*CAP
1 *22 0.00499873
2 *91:Q 0.00499873

*RES
1 *22 *91:Q 92.1612
*END

*D_NET *23 0.0071091

*CONN
*P *23 O *C 0 0 *L 0
*I *93:Q O *C 11.575 19.265 *L 0 *D DFFTRXL

*CAP
1 *23 0.00355455
2 *93:Q 0.00355455

*RES
1 *23 *93:Q 65.535
*END

*D_NET *24 0.00779604

*CONN
*P *24 O *C 0 0 *L 0
*I *95:Q O *C 17.975 15.845 *L 0 *D DFFTRXL

*CAP
1 *24 0.00389802
2 *95:Q 0.00389802

*RES
1 *24 *95:Q 71.8675
*END

*D_NET *25 0.00553238

*CONN
*P *25 O *C 0 0 *L 0
*I *97:Q O *C 11.575 12.425 *L 0 *D DFFTRXL

*CAP
1 *25 0.00276619
2 *97:Q 0.00276619

*RES
1 *25 *97:Q 51
*END

*D_NET *26 0.00779144

*CONN
*P *26 O *C 0 0 *L 0
*I *99:Q O *C 21.375 12.425 *L 0 *D DFFTRXL

*CAP
1 *26 0.00389572
2 *99:Q 0.00389572

*RES
1 *26 *99:Q 71.825
*END

*D_NET *27 0.00955258

*CONN
*P *27 O *C 0 0 *L 0
*I *101:Q O *C 22.175 19.265 *L 0 *D DFFTRXL

*CAP
1 *27 0.00477629
2 *101:Q 0.00477629

*RES
1 *27 *101:Q 88.06
*END

*D_NET *28 0.00086694

*CONN
*I *117:Q O *C 16.775 24.815 *L 0 *D DFFTRXL
*I *88:A I *C 19.065 26.165 *L 0.00253 *D ADDFX1

*CAP
1 *117:Q 0.00043347
2 *88:A 0.00043347

*RES
1 *117:Q *88:A 10.92
*END

*D_NET *29 0.00056446

*CONN
*I *115:Q O *C 26.375 26.105 *L 0 *D DFFTRXL
*I *90:A I *C 24.065 26.165 *L 0.00253 *D ADDFX1

*CAP
1 *115:Q 0.00028223
2 *90:A 0.00028223

*RES
1 *90:A *115:Q 7.11
*END

*D_NET *30 0.00051684

*CONN
*I *113:Q O *C 26.175 22.685 *L 0 *D DFFTRXL
*I *92:A I *C 24.065 22.745 *L 0.00253 *D ADDFX1

*CAP
1 *113:Q 0.00025842
2 *92:A 0.00025842

*RES
1 *92:A *113:Q 6.51
*END

*D_NET *31 0.00056446

*CONN
*I *104:Q O *C 15.575 21.395 *L 0 *D DFFTRXL
*I *94:A I *C 13.265 21.335 *L 0.00253 *D ADDFX1

*CAP
1 *104:Q 0.00028223
2 *94:A 0.00028223

*RES
1 *94:A *104:Q 7.11
*END

*D_NET *32 0.00165768

*CONN
*I *107:Q O *C 11.775 17.975 *L 0 *D DFFTRXL
*I *96:A I *C 16.665 15.905 *L 0.00253 *D ADDFX1

*CAP
1 *107:Q 0.00082884
2 *96:A 0.00082884

*RES
1 *107:Q *96:A 20.88
*END

*D_NET *33 0.00175056

*CONN
*I *109:Q O *C 11.775 14.555 *L 0 *D DFFTRXL
*I *98:A I *C 19.065 14.495 *L 0.00253 *D ADDFX1

*CAP
1 *109:Q 0.00087528
2 *98:A 0.00087528

*RES
1 *109:Q *98:A 22.05
*END

*D_NET *34 0.00056446

*CONN
*I *108:Q O *C 26.175 14.555 *L 0 *D DFFTRXL
*I *100:A I *C 23.865 14.495 *L 0.00253 *D ADDFX1

*CAP
1 *108:Q 0.00028223
2 *100:A 0.00028223

*RES
1 *100:A *108:Q 7.11
*END

*D_NET *35 0.00105032

*CONN
*I *110:Q O *C 25.975 15.845 *L 0 *D DFFTRXL
*I *103:B0 I *C 28.34 17.89 *L 0.000829 *D AOI2BB2X1
*I *103:A0N I *C 26.96 17.6 *L 0.000569 *D AOI2BB2X1

*CAP
1 *110:Q 0.000326291
2 *103:B0 0.000198869
3 *103:A0N 0.00052516

*RES
1 *110:Q *103:A0N 8.22000027
2 *103:A0N *103:B0 5.00994
*END

*D_NET *36 0.001772

*CONN
*I *116:Q O *C 11.575 26.105 *L 0 *D DFFTRXL
*I *88:B I *C 18.895 26.225 *L 0.00239 *D ADDFX1

*CAP
1 *116:Q 0.000886
2 *88:B 0.000886

*RES
1 *116:Q *88:B 22.32
*END

*D_NET *37 0.00087886

*CONN
*I *105:Q O *C 26.175 24.815 *L 0 *D DFFTRXL
*I *90:B I *C 23.895 26.225 *L 0.00239 *D ADDFX1

*CAP
1 *105:Q 0.00043943
2 *90:B 0.00043943

*RES
1 *90:B *105:Q 11.07
*END

*D_NET *38 0.00167672

*CONN
*I *106:Q O *C 16.975 22.685 *L 0 *D DFFTRXL
*I *92:B I *C 23.895 22.805 *L 0.00239 *D ADDFX1

*CAP
1 *106:Q 0.00083836
2 *92:B 0.00083836

*RES
1 *106:Q *92:B 21.12
*END

*D_NET *39 0.0006502

*CONN
*I *119:Q O *C 11.775 22.685 *L 0 *D DFFTRXL
*I *94:B I *C 13.095 21.275 *L 0.00239 *D ADDFX1

*CAP
1 *119:Q 0.0003251
2 *94:B 0.0003251

*RES
1 *119:Q *94:B 8.19
*END

*D_NET *40 0.00085266

*CONN
*I *112:Q O *C 16.775 19.265 *L 0 *D DFFTRXL
*I *96:B I *C 16.495 15.965 *L 0.00239 *D ADDFX1

*CAP
1 *112:Q 0.00042633
2 *96:B 0.00042633

*RES
1 *96:B *112:Q 10.74
*END

*D_NET *41 0.00107892

*CONN
*I *114:Q O *C 16.375 12.425 *L 0 *D DFFTRXL
*I *98:B I *C 18.895 14.435 *L 0.00239 *D ADDFX1

*CAP
1 *114:Q 0.00053946
2 *98:B 0.00053946

*RES
1 *114:Q *98:B 13.59
*END

*D_NET *42 0.00106938

*CONN
*I *118:Q O *C 26.175 12.425 *L 0 *D DFFTRXL
*I *100:B I *C 23.695 14.435 *L 0.00239 *D ADDFX1

*CAP
1 *118:Q 0.00053469
2 *100:B 0.00053469

*RES
1 *100:B *118:Q 13.47
*END

*D_NET *43 0.000759776

*CONN
*I *111:Q O *C 21.775 17.975 *L 0 *D DFFTRXL
*I *103:B1 I *C 27.9 18.145 *L 0.000865 *D AOI2BB2X1
*I *103:A1N I *C 26.94 17.89 *L 0.000573 *D AOI2BB2X1

*CAP
1 *111:Q 0.00061508
2 *103:B1 0.00013457
3 *103:A1N 1.01176e-05
4 *43:3 9.38552e-09

*RES
1 *43:3 *103:A1N 0.255113
2 *43:3 *111:Q 15.4950008
3 *103:B1 *43:3 3.39
*END

*D_NET *67 0.00047992

*CONN
*I *110:QN O *C 25.325 16.22 *L 0 *D DFFTRXL
*I *102:B I *C 23.375 16.285 *L 0.000862 *D NOR2X1

*CAP
1 *110:QN 0.00023996
2 *102:B 0.00023996

*RES
1 *102:B *110:QN 6.045
*END

*D_NET *68 0.00088362

*CONN
*I *111:QN O *C 21.125 17.6 *L 0 *D DFFTRXL
*I *102:A I *C 23.1 15.865 *L 0.00082 *D NOR2X1

*CAP
1 *111:QN 0.00044181
2 *102:A 0.00044181

*RES
1 *111:QN *102:A 11.13
*END

*D_NET *69 0.00109558

*CONN
*I *103:Y O *C 28.1 17.56 *L 0 *D AOI2BB2X1
*I *101:RN I *C 25.39 19.45 *L 0.00055 *D DFFTRXL

*CAP
1 *103:Y 0.00054779
2 *101:RN 0.00054779

*RES
1 *101:RN *103:Y 13.8
*END

*D_NET *70 0.00032154

*CONN
*I *102:Y O *C 23.515 15.93 *L 0 *D NOR2X1
*I *100:CI I *C 23.61 14.675 *L 0.00187 *D ADDFX1

*CAP
1 *102:Y 0.00016077
2 *100:CI 0.00016077

*RES
1 *102:Y *100:CI 4.05
*END

*D_NET *71 0.00083122

*CONN
*I *100:CO O *C 21.33 13.705 *L 0 *D ADDFX1
*I *98:CI I *C 18.81 14.675 *L 0.00187 *D ADDFX1

*CAP
1 *100:CO 0.00041561
2 *98:CI 0.00041561

*RES
1 *98:CI *100:CO 10.47
*END

*D_NET *72 0.000443

*CONN
*I *100:S O *C 24.15 14.03 *L 0 *D ADDFX1
*I *99:RN I *C 24.59 12.61 *L 0.00055 *D DFFTRXL

*CAP
1 *100:S 0.0002215
2 *99:RN 0.0002215

*RES
1 *100:S *99:RN 5.58
*END

*D_NET *73 0.00050968

*CONN
*I *98:CO O *C 16.53 13.705 *L 0 *D ADDFX1
*I *96:CI I *C 16.41 15.725 *L 0.00187 *D ADDFX1

*CAP
1 *98:CO 0.00025484
2 *96:CI 0.00025484

*RES
1 *96:CI *98:CO 6.42
*END

*D_NET *74 0.00142426

*CONN
*I *98:S O *C 19.35 14.03 *L 0 *D ADDFX1
*I *97:RN I *C 14.79 12.61 *L 0.00055 *D DFFTRXL

*CAP
1 *98:S 0.00071213
2 *97:RN 0.00071213

*RES
1 *97:RN *98:S 17.94
*END

*D_NET *75 0.00141474

*CONN
*I *96:CO O *C 14.13 16.695 *L 0 *D ADDFX1
*I *94:CI I *C 13.01 21.515 *L 0.00187 *D ADDFX1

*CAP
1 *96:CO 0.00070737
2 *94:CI 0.00070737

*RES
1 *94:CI *96:CO 17.82
*END

*D_NET *76 0.00109082

*CONN
*I *96:S O *C 16.95 16.37 *L 0 *D ADDFX1
*I *95:RN I *C 21.19 16.03 *L 0.00055 *D DFFTRXL

*CAP
1 *96:S 0.00054541
2 *95:RN 0.00054541

*RES
1 *96:S *95:RN 13.74
*END

*D_NET *77 0.00359638

*CONN
*I *94:CO O *C 10.73 20.545 *L 0 *D ADDFX1
*I *92:CI I *C 23.81 22.565 *L 0.00187 *D ADDFX1

*CAP
1 *94:CO 0.00179819
2 *92:CI 0.00179819

*RES
1 *94:CO *92:CI 45.3
*END

*D_NET *78 0.00063354

*CONN
*I *94:S O *C 13.55 20.87 *L 0 *D ADDFX1
*I *93:RN I *C 14.79 19.45 *L 0.00055 *D DFFTRXL

*CAP
1 *94:S 0.00031677
2 *93:RN 0.00031677

*RES
1 *94:S *93:RN 7.98
*END

*D_NET *79 0.00112654

*CONN
*I *92:CO O *C 21.53 23.535 *L 0 *D ADDFX1
*I *90:CI I *C 23.81 25.985 *L 0.00187 *D ADDFX1

*CAP
1 *92:CO 0.00056327
2 *90:CI 0.00056327

*RES
1 *92:CO *90:CI 14.19
*END

*D_NET *80 0.0006764

*CONN
*I *92:S O *C 24.35 23.21 *L 0 *D ADDFX1
*I *91:RN I *C 25.19 21.21 *L 0.00055 *D DFFTRXL

*CAP
1 *92:S 0.0003382
2 *91:RN 0.0003382

*RES
1 *92:S *91:RN 8.52
*END

*D_NET *81 0.00087886

*CONN
*I *90:CO O *C 21.53 26.955 *L 0 *D ADDFX1
*I *88:CI I *C 18.81 25.985 *L 0.00187 *D ADDFX1

*CAP
1 *90:CO 0.00043943
2 *88:CI 0.00043943

*RES
1 *88:CI *90:CO 11.07
*END

*D_NET *82 0.000443

*CONN
*I *90:S O *C 24.35 26.63 *L 0 *D ADDFX1
*I *89:RN I *C 24.79 28.05 *L 0.00055 *D DFFTRXL

*CAP
1 *90:S 0.0002215
2 *89:RN 0.0002215

*RES
1 *90:S *89:RN 5.58
*END

*D_NET *83 0.0009896

*CONN
*I *88:CO O *C 16.53 26.955 *L 0 *D ADDFX1
*I *86:RN I *C 19.59 28.05 *L 0.00055 *D DFFTRXL

*CAP
1 *88:CO 0.0004948
2 *86:RN 0.0004948

*RES
1 *88:CO *86:RN 12.465
*END

*D_NET *84 0.0015624

*CONN
*I *88:S O *C 19.35 26.63 *L 0 *D ADDFX1
*I *87:RN I *C 14.79 24.63 *L 0.00055 *D DFFTRXL

*CAP
1 *88:S 0.0007812
2 *87:RN 0.0007812

*RES
1 *87:RN *88:S 19.68
*END

*D_NET *85 0.0110277

*CONN
*I *120:Y O *C 20.33 17.33 *L 0 *D INVX1
*I *119:D I *C 15.17 22.92 *L 0.00056 *D DFFTRXL
*I *118:D I *C 29.57 12.66 *L 0.00056 *D DFFTRXL
*I *117:D I *C 20.17 24.58 *L 0.00056 *D DFFTRXL
*I *116:D I *C 14.97 26.34 *L 0.00056 *D DFFTRXL
*I *115:D I *C 29.77 26.34 *L 0.00056 *D DFFTRXL
*I *114:D I *C 19.77 12.66 *L 0.00056 *D DFFTRXL
*I *113:D I *C 29.57 22.92 *L 0.00056 *D DFFTRXL
*I *112:D I *C 20.17 19.5 *L 0.00056 *D DFFTRXL
*I *111:D I *C 25.17 17.74 *L 0.00056 *D DFFTRXL
*I *110:D I *C 29.37 16.08 *L 0.00056 *D DFFTRXL
*I *109:D I *C 15.17 14.32 *L 0.00056 *D DFFTRXL
*I *108:D I *C 29.57 14.32 *L 0.00056 *D DFFTRXL
*I *107:D I *C 15.17 17.74 *L 0.00056 *D DFFTRXL
*I *106:D I *C 20.37 22.92 *L 0.00056 *D DFFTRXL
*I *105:D I *C 29.57 24.58 *L 0.00056 *D DFFTRXL
*I *104:D I *C 18.97 21.16 *L 0.00056 *D DFFTRXL
*I *101:D I *C 25.57 19.5 *L 0.00056 *D DFFTRXL
*I *99:D I *C 24.77 12.66 *L 0.00056 *D DFFTRXL
*I *97:D I *C 14.97 12.66 *L 0.00056 *D DFFTRXL
*I *95:D I *C 21.37 16.08 *L 0.00056 *D DFFTRXL
*I *93:D I *C 14.97 19.5 *L 0.00056 *D DFFTRXL
*I *91:D I *C 25.37 21.16 *L 0.00056 *D DFFTRXL
*I *89:D I *C 24.97 28 *L 0.00056 *D DFFTRXL
*I *87:D I *C 14.97 24.58 *L 0.00056 *D DFFTRXL
*I *86:D I *C 19.77 28 *L 0.00056 *D DFFTRXL

*CAP
1 *120:Y 0.00040132
2 *119:D 2.382e-05
3 *118:D 0.00076929
4 *117:D 0.00060495
5 *116:D 0.00020959
6 *115:D 0.00023341
7 *114:D 0.00019054
8 *113:D 0.00088361
9 *112:D 0.00047515
10 *111:D 0.00075857
11 *110:D 0.00023341
12 *109:D 0.00060495
13 *108:D 0.00043109
14 *107:D 0.00064068
15 *106:D 2.382e-05
16 *105:D 0.00043109
17 *104:D 0.00061924
18 *101:D 0.0004549
19 *99:D 0.0009765
20 *97:D 2.382e-05
21 *95:D 0.00055613
22 *93:D 0.00043109
23 *91:D 2.382e-05
24 *89:D 0.00057161
25 *87:D 0.00040727
26 *86:D 4.763e-05
27 *85:26 1e-08
28 *85:27 2e-08
29 *85:28 3e-08
30 *85:29 4e-08
31 *85:30 5e-08
32 *85:31 6e-08
33 *85:32 7e-08
34 *85:33 8e-08
35 *85:34 9e-08

*RES
1 *109:D *85:27 4.97997
2 *101:D *85:28 4.97997
3 *117:D *85:29 10.26
4 *120:Y *85:30 3.12003
5 *104:D *85:31 3.59991
6 *95:D *85:32 10.26
7 *85:27 *97:D 0.600117
8 *85:33 *93:D 4.97997
9 *85:26 *87:D 4.97997
10 *87:D *116:D 5.28003
11 *107:D *109:D 10.26
12 *93:D *107:D 5.87988
13 *85:26 *119:D 0.600117
14 *85:33 *104:D 12
15 *85:32 *114:D 4.79988
16 *85:29 *86:D 1.19997
17 *85:31 *112:D 4.97997
18 *85:34 *117:D 4.97997
19 *112:D *120:Y 6.98994
20 *85:34 *106:D 0.600117
21 *85:30 *95:D 3.74994
22 *85:32 *99:D 10.1999
23 *85:29 *89:D 14.3999
24 *85:30 *111:D 12.6299
25 *85:28 *91:D 0.600117
26 *111:D *101:D 6.48
27 *108:D *110:D 5.87988
28 *99:D *118:D 14.3999
29 *118:D *108:D 4.97997
30 *85:28 *113:D 17.2800007
31 *113:D *105:D 4.97997
32 *105:D *115:D 5.87988
33 *85:26 *85:33 3.73992
34 *85:31 *85:34 3.73992
*END

