*SPEF "IEEE 1481-1998"
*DESIGN "reg_adder"
*DATE "Wed Feb 18 18:53:07 2026"
*VENDOR "Cadence Design Systems, Inc."
*PROGRAM "Innovus"
*VERSION "21.15-s110_1"
*DESIGN_FLOW "PIN_CAP NONE" "NAME_SCOPE LOCAL"
*DIVIDER /
*DELIMITER :
*BUS_DELIMITER []
*T_UNIT 1 NS
*C_UNIT 1 PF
*R_UNIT 1 OHM
*L_UNIT 1 HENRY

// MMMC spef file for corner 'rc_typ'

*NAME_MAP

*1 clk
*2 rst
*3 a[7]
*4 a[6]
*5 a[5]
*6 a[4]
*7 a[3]
*8 a[2]
*9 a[1]
*10 a[0]
*11 b[7]
*12 b[6]
*13 b[5]
*14 b[4]
*15 b[3]
*16 b[2]
*17 b[1]
*18 b[0]
*19 sum_q[8]
*20 sum_q[7]
*21 sum_q[6]
*22 sum_q[5]
*23 sum_q[4]
*24 sum_q[3]
*25 sum_q[2]
*26 sum_q[1]
*27 sum_q[0]
*28 a_reg[7]
*29 a_reg[6]
*30 a_reg[5]
*31 a_reg[4]
*32 a_reg[3]
*33 a_reg[2]
*34 a_reg[1]
*35 a_reg[0]
*36 b_reg[7]
*37 b_reg[6]
*38 b_reg[5]
*39 b_reg[4]
*40 b_reg[3]
*41 b_reg[2]
*42 b_reg[1]
*43 b_reg[0]
*44 UNCONNECTED
*45 UNCONNECTED0
*46 UNCONNECTED1
*47 UNCONNECTED2
*48 UNCONNECTED3
*49 UNCONNECTED4
*50 UNCONNECTED5
*51 UNCONNECTED6
*52 UNCONNECTED7
*53 UNCONNECTED8
*54 UNCONNECTED9
*55 UNCONNECTED10
*56 UNCONNECTED11
*57 UNCONNECTED12
*58 UNCONNECTED13
*59 UNCONNECTED14
*60 UNCONNECTED15
*61 UNCONNECTED16
*62 UNCONNECTED17
*63 UNCONNECTED18
*64 UNCONNECTED19
*65 UNCONNECTED20
*66 UNCONNECTED21
*67 n_0
*68 n_1
*69 n_2
*70 n_3
*71 n_4
*72 n_5
*73 n_6
*74 n_7
*75 n_8
*76 n_9
*77 n_10
*78 n_11
*79 n_12
*80 n_13
*81 n_14
*82 n_15
*83 n_16
*84 n_17
*85 n_18
*86 sum_q_reg\[8\]
*87 sum_q_reg\[7\]
*88 g723__2398
*89 sum_q_reg\[6\]
*90 g725__5107
*91 sum_q_reg\[5\]
*92 g727__6260
*93 sum_q_reg\[4\]
*94 g729__4319
*95 sum_q_reg\[3\]
*96 g731__8428
*97 sum_q_reg\[2\]
*98 g733__5526
*99 sum_q_reg\[1\]
*100 g735__6783
*101 sum_q_reg\[0\]
*102 g738__3680
*103 g737__1617
*104 a_reg_reg\[4\]
*105 b_reg_reg\[6\]
*106 b_reg_reg\[5\]
*107 a_reg_reg\[3\]
*108 a_reg_reg\[1\]
*109 a_reg_reg\[2\]
*110 a_reg_reg\[0\]
*111 b_reg_reg\[0\]
*112 b_reg_reg\[3\]
*113 a_reg_reg\[5\]
*114 b_reg_reg\[2\]
*115 a_reg_reg\[6\]
*116 b_reg_reg\[7\]
*117 a_reg_reg\[7\]
*118 b_reg_reg\[1\]
*119 b_reg_reg\[4\]
*120 g757


*PORTS

*1 I *C 0 0
*2 I *C 0 0
*3 I *C 0 0
*4 I *C 0 0
*5 I *C 0 0
*6 I *C 0 0
*7 I *C 0 0
*8 I *C 0 0
*9 I *C 0 0
*10 I *C 0 0
*11 I *C 0 0
*12 I *C 0 0
*13 I *C 0 0
*14 I *C 0 0
*15 I *C 0 0
*16 I *C 0 0
*17 I *C 0 0
*18 I *C 0 0
*19 O *C 0 0
*20 O *C 0 0
*21 O *C 0 0
*22 O *C 0 0
*23 O *C 0 0
*24 O *C 0 0
*25 O *C 0 0
*26 O *C 0 0
*27 O *C 0 0


*D_NET *1 0.00847192

*CONN
*I *115:CK I *C 26.7 26.47 *L 0.000577 *D DFFTRXL
*I *105:CK I *C 26.5 24.45 *L 0.000577 *D DFFTRXL
*I *113:CK I *C 26.5 23.05 *L 0.000577 *D DFFTRXL
*I *91:CK I *C 22.3 21.03 *L 0.000577 *D DFFTRXL
*I *101:CK I *C 22.5 19.63 *L 0.000577 *D DFFTRXL
*I *111:CK I *C 22.1 17.61 *L 0.000577 *D DFFTRXL
*I *112:CK I *C 17.1 19.63 *L 0.000577 *D DFFTRXL
*I *104:CK I *C 15.9 21.03 *L 0.000577 *D DFFTRXL
*I *95:CK I *C 18.3 16.21 *L 0.000577 *D DFFTRXL
*I *117:CK I *C 17.1 24.45 *L 0.000577 *D DFFTRXL
*I *106:CK I *C 17.3 23.05 *L 0.000577 *D DFFTRXL
*I *89:CK I *C 21.9 27.87 *L 0.000577 *D DFFTRXL
*I *119:CK I *C 12.1 23.05 *L 0.000577 *D DFFTRXL
*I *107:CK I *C 12.1 17.61 *L 0.000577 *D DFFTRXL
*I *86:CK I *C 16.7 27.87 *L 0.000577 *D DFFTRXL
*I *93:CK I *C 11.9 19.63 *L 0.000577 *D DFFTRXL
*I *109:CK I *C 12.1 14.19 *L 0.000577 *D DFFTRXL
*I *87:CK I *C 11.9 24.45 *L 0.000577 *D DFFTRXL
*I *116:CK I *C 11.9 26.47 *L 0.000577 *D DFFTRXL
*I *114:CK I *C 16.7 12.79 *L 0.000577 *D DFFTRXL
*I *97:CK I *C 11.9 12.79 *L 0.000577 *D DFFTRXL
*I *99:CK I *C 21.7 12.79 *L 0.000577 *D DFFTRXL
*I *118:CK I *C 26.5 12.79 *L 0.000577 *D DFFTRXL
*I *108:CK I *C 26.5 14.19 *L 0.000577 *D DFFTRXL
*I *110:CK I *C 26.3 16.21 *L 0.000577 *D DFFTRXL

*CAP
1 *1:1 1.39293e-06
2 *1:2 1.39293e-06
3 *1:3 1.14074e-05
4 *1:4 1.14074e-05
5 *1:5 0.000112503
6 *1:6 0.000187047
7 *1:8 7.70194e-05
8 *1:10 0.000239556
9 *1:11 2.47562e-06
10 *1:13 0.000239556
11 *1:15 0.000113604
12 *1:17 0.000187047
13 *1:20 7.34435e-05
14 *1:22 2.28149e-05
15 *1:24 1.14074e-05
16 *1:25 0.000216742
17 *1:26 3.62162e-06
18 *1:27 0.000114704
19 *1:28 0.000285186
20 *1:29 3.62162e-06
21 *1:30 0.000114704
22 *1:31 0.000132033
23 *1:32 7.98521e-05
24 *1:35 7.70194e-05
25 *1:36 5.50139e-05
26 *1:37 3.62162e-06
27 *1:39 7.98521e-05
28 *1:40 1.08702e-05
29 *1:41 3.62162e-06
30 *1:43 0.000146302
31 *1:44 1.08702e-05
32 *1:46 0.000110028
33 *1:47 0.000265799
34 *1:48 0.000136248
35 *1:49 0.000184571
36 *1:50 3.59006e-06
37 *1:51 0.000210424
38 *1:52 0.000136248
39 *1:53 0.000264066
40 *1:54 1.14074e-05
41 *1:55 3.59006e-06
42 *1:56 0.000109321
43 *1:57 1.1075e-05
44 *1:59 0.000200525
45 *1:61 1.14074e-05
46 *1:63 0.000109321
47 *1:64 7.65245e-05
48 *1:66 1.10028e-05
49 *1:67 0.000273779
50 *1:69 2.50728e-06
51 *1:70 1.1075e-05
52 *1:71 0.000190491
53 *1:73 2.21499e-05
54 *1:74 0.000273779
55 *1:76 2.50728e-06
56 *1:77 2.21499e-05
57 *1:78 1.1075e-05
58 *1:79 0.000300418
59 *1:80 2.21499e-05
60 *1:81 1.39293e-06
61 *1:83 2.48542e-06
62 *1:84 1.1075e-05
63 *1:85 1.1075e-05
64 *1:87 0.000267919
65 *1:88 1.24271e-05
66 *1:89 1.39293e-06
67 *1:90 2.48542e-06
68 *1:91 7.40648e-05
69 *1:92 3.59006e-06
70 *1:95 8.14671e-05
71 *1:96 1.24271e-05
72 *1:99 0.000184479
73 *1:100 3.59006e-06
74 *1:103 0.000264014
75 *1:105 0.000110414
76 *1:109 0.000531283
77 *1:110 1.10006e-05
78 *1:113 0.000545679
79 *1:114 5.20737e-06
80 *1:115 5.20737e-06
81 *1:118 0.00026741
82 *1:119 5.23186e-06
83 *1:120 5.20737e-06
84 *1:121 5.20737e-06
85 *1:123 5.17711e-06
86 *1:124 5.23186e-06
87 *1:127 8.14714e-05
88 *1:129 0.000191008
89 *1:131 0.000114714
90 *1:134 1.11421e-05
91 *1:137 1.11421e-05
92 *1:139 4.68113e-06
93 *1:140 4.68113e-06

*RES
1 *1:140 *110:CK 4
2 *1:139 *1:140 0.180625
3 *1:137 *1:139 4
4 *1:135 *108:CK 4
5 *1:134 *1:137 0.425
6 *1:133 *118:CK 4
7 *1:132 *1:135 4
8 *1:131 *1:134 4
9 *1:130 *1:133 4
10 *1:129 *1:132 4
11 *1:129 *1:131 4.47313
12 *1:127 *1:130 4
13 *1:127 *1:129 2.975
14 *1:124 *99:CK 4
15 *1:123 *1:127 0.201875
16 *1:121 *97:CK 4
17 *1:120 *114:CK 4
18 *1:119 *1:124 0.201875
19 *1:118 *1:123 4
20 *1:116 *116:CK 4
21 *1:115 *1:121 0.201875
22 *1:114 *1:120 0.201875
23 *1:113 *1:119 4
24 *1:113 *1:118 10.2
25 *1:112 *87:CK 4
26 *1:111 *1:116 4
27 *1:110 *1:115 4
28 *1:109 *1:114 4
29 *1:109 *1:113 10.625
30 *1:106 *1:112 4
31 *1:105 *1:111 4
32 *1:103 *1:110 0.425
33 *1:103 *1:109 9.775
34 *1:102 *109:CK 4
35 *1:100 *93:CK 4
36 *1:99 *1:106 4
37 *1:99 *1:105 4.2925
38 *1:96 *86:CK 4
39 *1:95 *1:103 4
40 *1:94 *1:102 4
41 *1:93 *107:CK 4
42 *1:92 *1:100 0.138125
43 *1:91 *1:99 2.87938
44 *1:90 *119:CK 4
45 *1:89 *89:CK 4
46 *1:88 *1:96 0.478125
47 *1:87 *1:95 3.17688
48 *1:87 *1:94 4
49 *1:86 *1:93 4
50 *1:85 *1:92 4
51 *1:84 *1:91 4
52 *1:83 *1:90 0.095625
53 *1:81 *1:89 0.053125
54 *1:80 *1:88 4
55 *1:79 *1:87 7.2675
56 *1:79 *1:86 4
57 *1:78 *1:85 0.425
58 *1:77 *1:84 0.425
59 *1:77 *1:83 4
60 *1:76 *106:CK 4
61 *1:74 *1:81 4
62 *1:73 *1:80 0.85
63 *1:71 *1:79 4.43063
64 *1:71 *1:78 4
65 *1:70 *1:77 0.425
66 *1:69 *1:76 0.095625
67 *1:68 *117:CK 4
68 *1:67 *1:74 10.2
69 *1:66 *1:73 4
70 *1:65 *95:CK 4
71 *1:64 *1:71 2.975
72 *1:63 *1:70 4
73 *1:61 *1:69 4
74 *1:60 *1:68 4
75 *1:59 *1:67 4
76 *1:59 *1:66 0.425
77 *1:58 *1:65 4
78 *1:57 *1:64 4
79 *1:56 *1:63 4.25
80 *1:55 *104:CK 4
81 *1:54 *1:61 0.425
82 *1:53 *1:60 4
83 *1:53 *1:59 7.32063
84 *1:52 *1:58 4
85 *1:51 *1:57 0.425
86 *1:51 *1:56 4
87 *1:50 *1:55 0.138125
88 *1:49 *1:54 4
89 *1:49 *1:53 2.87938
90 *1:48 *1:52 5.28063
91 *1:47 *1:51 7.65
92 *1:47 *1:50 4
93 *1:46 *1:49 4.25
94 *1:44 *1:48 4
95 *1:43 *1:47 2.55
96 *1:43 *1:46 4
97 *1:41 *112:CK 4
98 *1:40 *1:44 0.425
99 *1:39 *1:43 2.975
100 *1:38 *111:CK 4
101 *1:37 *1:41 0.138125
102 *1:36 *1:40 4
103 *1:35 *1:39 4
104 *1:34 *1:38 4
105 *1:32 *1:37 4
106 *1:31 *1:36 2.125
107 *1:31 *1:35 2.975
108 *1:30 *1:34 4
109 *1:29 *101:CK 4
110 *1:28 *1:32 2.975
111 *1:28 *1:31 4
112 *1:27 *1:30 4.43063
113 *1:26 *1:29 0.138125
114 *1:25 *1:28 7.65
115 *1:25 *1:27 4
116 *1:24 *1:26 4
117 *1:22 *1:25 0.425
118 *1:22 *1:24 0.425
119 *1:21 *91:CK 4
120 *1:20 *1:22 4
121 *1:19 *1:21 4
122 *1:17 *1:20 2.83688
123 *1:17 *1:19 4
124 *1:16 *113:CK 4
125 *1:15 *1:17 4.38813
126 *1:14 *1:16 4
127 *1:13 *1:15 4
128 *1:11 *1:14 4
129 *1:10 *1:13 8.925
130 *1:9 *105:CK 4
131 *1:8 *1:11 0.095625
132 *1:8 *1:10 4
133 *1:7 *1:9 4
134 *1:6 *1:8 2.87938
135 *1:6 *1:7 4
136 *1:5 *1:6 4.34563
137 *1:4 *1:5 4
138 *1:3 *1:4 0.425
139 *1:2 *1:3 4
140 *1:1 *1:2 0.053125
141 *115:CK *1:1 4
*END

*D_NET *28 0.000487672

*CONN
*I *88:A I *C 19.065 26.165 *L 0.00253 *D ADDFX1
*I *117:Q O *C 16.775 24.815 *L 0 *D DFFTRXL

*CAP
1 *28:1 2.03599e-06
2 *28:2 9.59824e-06
3 *28:3 7.56225e-06
4 *28:4 0.000146289
5 *28:5 0.000146289
6 *28:6 8.37073e-05
7 *28:7 8.79492e-05
8 *28:8 4.24192e-06

*RES
1 *28:8 *117:Q 4
2 *28:7 *28:8 0.159379
3 *28:6 *28:7 3.14508
4 *28:5 *28:6 4
5 *28:4 *28:5 5.10012
6 *28:3 *28:4 4
7 *28:2 *28:3 0.276257
8 *28:1 *28:2 0.0743768
9 *88:A *28:1 4
*END

*D_NET *29 0.000294169

*CONN
*I *90:A I *C 24.065 26.165 *L 0.00253 *D ADDFX1
*I *115:Q O *C 26.375 26.105 *L 0 *D DFFTRXL

*CAP
1 *29:1 2.03599e-06
2 *29:2 6.10797e-06
3 *29:3 4.07198e-06
4 *29:4 0.000136032
5 *29:5 0.000136032
6 *29:6 5.81711e-07
7 *29:7 4.94455e-06
8 *29:8 4.36284e-06

*RES
1 *29:8 *115:Q 4
2 *29:7 *29:8 0.159379
3 *29:6 *29:7 0.0212505
4 *29:5 *29:6 4
5 *29:4 *29:5 4.67511
6 *29:3 *29:4 4
7 *29:2 *29:3 0.148754
8 *29:1 *29:2 0.0743768
9 *90:A *29:1 4
*END

*D_NET *30 0.000302012

*CONN
*I *92:A I *C 24.065 22.745 *L 0.00253 *D ADDFX1
*I *113:Q O *C 26.175 22.685 *L 0 *D DFFTRXL

*CAP
1 *30:1 2.03599e-06
2 *30:2 1.07617e-05
3 *30:3 8.72567e-06
4 *30:4 0.000123666
5 *30:5 0.000123666
6 *30:6 1.22159e-05
7 *30:7 1.65788e-05
8 *30:8 4.36284e-06

*RES
1 *30:8 *113:Q 4
2 *30:7 *30:8 0.159379
3 *30:6 *30:7 0.446261
4 *30:5 *30:6 4
5 *30:4 *30:5 4.2501
6 *30:3 *30:4 4
7 *30:2 *30:3 0.318758
8 *30:1 *30:2 0.0743768
9 *92:A *30:1 4
*END

*D_NET *31 0.000277132

*CONN
*I *94:A I *C 13.265 21.335 *L 0.00253 *D ADDFX1
*I *104:Q O *C 15.575 21.395 *L 0 *D DFFTRXL

*CAP
1 *31:1 1.97956e-06
2 *31:2 4.24192e-06
3 *31:3 2.26236e-06
4 *31:4 0.000124426
5 *31:5 0.000124426
6 *31:6 5.6559e-06
7 *31:7 9.89782e-06
8 *31:8 4.24192e-06

*RES
1 *31:8 *104:Q 4
2 *31:7 *31:8 0.159379
3 *31:6 *31:7 0.212505
4 *31:5 *31:6 4
5 *31:4 *31:5 4.67511
6 *31:3 *31:4 4
7 *31:2 *31:3 0.0850021
8 *31:1 *31:2 0.0743768
9 *94:A *31:1 4
*END

*D_NET *32 0.000801451

*CONN
*I *96:A I *C 16.665 15.905 *L 0.00253 *D ADDFX1
*I *107:Q O *C 11.775 17.975 *L 0 *D DFFTRXL

*CAP
1 *32:1 1.93847e-06
2 *32:2 2.49232e-06
3 *32:3 5.53849e-07
4 *32:4 0.000266452
5 *32:5 0.000266452
6 *32:6 0.000111703
7 *32:7 0.000111703
8 *32:8 1.13115e-05
9 *32:9 1.13115e-05
10 *32:10 4.52472e-06
11 *32:11 8.76664e-06
12 *32:12 4.24192e-06

*RES
1 *32:12 *107:Q 4
2 *32:11 *32:12 0.159379
3 *32:10 *32:11 0.170004
4 *32:9 *32:10 4
5 *32:8 *32:9 0.42501
6 *32:7 *32:8 4
7 *32:6 *32:7 4.2501
8 *32:5 *32:6 4
9 *32:4 *32:5 10.2003
10 *32:3 *32:4 4
11 *32:2 *32:3 0.0212505
12 *32:1 *32:2 0.0743768
13 *96:A *32:1 4
*END

*D_NET *33 0.00084864

*CONN
*I *98:A I *C 19.065 14.495 *L 0.00253 *D ADDFX1
*I *109:Q O *C 11.775 14.555 *L 0 *D DFFTRXL

*CAP
1 *33:1 1.95729e-06
2 *33:2 1.95729e-06
3 *33:3 0.000414886
4 *33:4 0.000414886
5 *33:5 3.32309e-06
6 *33:6 7.47696e-06
7 *33:7 4.15387e-06

*RES
1 *33:7 *109:Q 4
2 *33:6 *33:7 0.159379
3 *33:5 *33:6 0.127503
4 *33:4 *33:5 4
5 *33:3 *33:4 15.7254
6 *33:2 *33:3 4
7 *33:1 *33:2 0.0743768
8 *98:A *33:1 4
*END

*D_NET *34 0.000272294

*CONN
*I *100:A I *C 23.865 14.495 *L 0.00253 *D ADDFX1
*I *108:Q O *C 26.175 14.555 *L 0 *D DFFTRXL

*CAP
1 *34:1 1.95729e-06
2 *34:2 1.95729e-06
3 *34:3 0.00012664
4 *34:4 0.00012664
5 *34:5 3.35536e-06
6 *34:6 7.54956e-06
7 *34:7 4.1942e-06

*RES
1 *34:7 *108:Q 4
2 *34:6 *34:7 0.159379
3 *34:5 *34:6 0.127503
4 *34:4 *34:5 4
5 *34:3 *34:4 4.67511
6 *34:2 *34:3 4
7 *34:1 *34:2 0.0743768
8 *100:A *34:1 4
*END

*D_NET *35 0.000560149

*CONN
*I *103:B0 I *C 28.34 17.89 *L 0.000829 *D AOI2BB2X1
*I *103:A0N I *C 26.96 17.6 *L 0.000569 *D AOI2BB2X1
*I *110:Q O *C 25.975 15.845 *L 0 *D DFFTRXL

*CAP
1 *35:1 2.32685e-06
2 *35:2 1.36702e-05
3 *35:3 1.13434e-05
4 *35:4 8.6566e-05
5 *35:5 0.000148399
6 *35:6 5.52626e-06
7 *35:7 6.18328e-05
8 *35:8 9.01653e-06
9 *35:9 0.000104795
10 *35:10 3.49027e-06
11 *35:11 0.000108989
12 *35:13 4.1942e-06

*RES
1 *35:13 *110:Q 4
2 *35:11 *35:13 0.159379
3 *35:10 *103:A0N 4
4 *35:9 *35:11 3.93135
5 *35:8 *35:10 0.127503
6 *35:7 *35:9 4
7 *35:6 *35:8 0.20188
8 *35:5 *35:7 2.12505
9 *35:5 *35:6 4
10 *35:4 *35:5 2.97507
11 *35:3 *35:4 4
12 *35:2 *35:3 0.414385
13 *35:1 *35:2 0.0850021
14 *103:B0 *35:1 4
*END

*D_NET *36 0.000881363

*CONN
*I *88:B I *C 18.895 26.225 *L 0.00239 *D ADDFX1
*I *116:Q O *C 11.575 26.105 *L 0 *D DFFTRXL

*CAP
1 *36:1 2.90856e-07
2 *36:2 7.8531e-06
3 *36:3 7.56225e-06
4 *36:4 0.000428021
5 *36:5 0.000428021
6 *36:6 5.6559e-07
7 *36:7 4.80751e-06
8 *36:8 4.24192e-06

*RES
1 *36:8 *116:Q 4
2 *36:7 *36:8 0.159379
3 *36:6 *36:7 0.0212505
4 *36:5 *36:6 4
5 *36:4 *36:5 15.7254
6 *36:3 *36:4 4
7 *36:2 *36:3 0.276257
8 *36:1 *36:2 0.0106253
9 *88:B *36:1 4
*END

*D_NET *37 0.000445414

*CONN
*I *90:B I *C 23.895 26.225 *L 0.00239 *D ADDFX1
*I *105:Q O *C 26.175 24.815 *L 0 *D DFFTRXL

*CAP
1 *37:1 2.90856e-07
2 *37:2 7.76585e-05
3 *37:3 7.73676e-05
4 *37:4 0.000136032
5 *37:5 0.000136032
6 *37:6 4.65369e-06
7 *37:7 9.01653e-06
8 *37:8 4.36284e-06

*RES
1 *37:8 *105:Q 4
2 *37:7 *37:8 0.159379
3 *37:6 *37:7 0.170004
4 *37:5 *37:6 4
5 *37:4 *37:5 4.67511
6 *37:3 *37:4 4
7 *37:2 *37:3 2.82632
8 *37:1 *37:2 0.0106253
9 *90:B *37:1 4
*END

*D_NET *38 0.000886544

*CONN
*I *92:B I *C 23.895 22.805 *L 0.00239 *D ADDFX1
*I *106:Q O *C 16.975 22.685 *L 0 *D DFFTRXL

*CAP
1 *38:1 2.90856e-07
2 *38:2 6.68968e-06
3 *38:3 6.39883e-06
4 *38:4 0.000431775
5 *38:5 0.000431775
6 *38:6 5.6559e-07
7 *38:7 4.80751e-06
8 *38:8 4.24192e-06

*RES
1 *38:8 *106:Q 4
2 *38:7 *38:8 0.159379
3 *38:6 *38:7 0.0212505
4 *38:5 *38:6 4
5 *38:4 *38:5 14.8754
6 *38:3 *38:4 4
7 *38:2 *38:3 0.233756
8 *38:1 *38:2 0.0106253
9 *92:B *38:1 4
*END

*D_NET *39 0.000329169

*CONN
*I *94:B I *C 13.095 21.275 *L 0.00239 *D ADDFX1
*I *119:Q O *C 11.775 22.685 *L 0 *D DFFTRXL

*CAP
1 *39:1 2.82795e-07
2 *39:2 1.41397e-06
3 *39:3 1.13118e-06
4 *39:4 4.52459e-05
5 *39:5 4.52459e-05
6 *39:6 7.91826e-05
7 *39:7 7.91826e-05
8 *39:8 3.39345e-05
9 *39:9 3.39345e-05
10 *39:10 5.6559e-07
11 *39:11 4.80751e-06
12 *39:12 4.24192e-06

*RES
1 *39:12 *119:Q 4
2 *39:11 *39:12 0.159379
3 *39:10 *39:11 0.0212505
4 *39:9 *39:10 4
5 *39:8 *39:9 1.27503
6 *39:7 *39:8 4
7 *39:6 *39:7 2.97507
8 *39:5 *39:6 4
9 *39:4 *39:5 1.70004
10 *39:3 *39:4 4
11 *39:2 *39:3 0.042501
12 *39:1 *39:2 0.0106253
13 *94:B *39:1 4
*END

*D_NET *40 0.000409072

*CONN
*I *96:B I *C 16.495 15.965 *L 0.00239 *D ADDFX1
*I *112:Q O *C 16.775 19.265 *L 0 *D DFFTRXL

*CAP
1 *40:1 2.76924e-07
2 *40:2 0.000187286
3 *40:3 0.000187009
4 *40:4 1.13115e-05
5 *40:5 1.13115e-05
6 *40:6 1.69677e-06
7 *40:7 5.93869e-06
8 *40:8 4.24192e-06

*RES
1 *40:8 *112:Q 4
2 *40:7 *40:8 0.159379
3 *40:6 *40:7 0.0637516
4 *40:5 *40:6 4
5 *40:4 *40:5 0.42501
6 *40:3 *40:4 4
7 *40:2 *40:3 7.07642
8 *40:1 *40:2 0.0106253
9 *96:B *40:1 4
*END

*D_NET *41 0.000585441

*CONN
*I *98:B I *C 18.895 14.435 *L 0.00239 *D ADDFX1
*I *114:Q O *C 16.375 12.425 *L 0 *D DFFTRXL

*CAP
1 *41:1 2.79613e-07
2 *41:2 1.48195e-05
3 *41:3 1.45399e-05
4 *41:4 0.000148023
5 *41:5 0.000148023
6 *41:6 0.000125724
7 *41:7 0.000129878
8 *41:8 4.15387e-06

*RES
1 *41:8 *114:Q 4
2 *41:7 *41:8 0.159379
3 *41:6 *41:7 4.82387
4 *41:5 *41:6 4
5 *41:4 *41:5 5.52514
6 *41:3 *41:4 4
7 *41:2 *41:3 0.552514
8 *41:1 *41:2 0.0106253
9 *98:B *41:1 4
*END

*D_NET *42 0.000568222

*CONN
*I *100:B I *C 23.695 14.435 *L 0.00239 *D ADDFX1
*I *118:Q O *C 26.175 12.425 *L 0 *D DFFTRXL

*CAP
1 *42:1 2.79613e-07
2 *42:2 1.48195e-05
3 *42:3 1.45399e-05
4 *42:4 0.000138153
5 *42:5 0.000138153
6 *42:6 0.000126944
7 *42:7 0.000131139
8 *42:8 4.1942e-06

*RES
1 *42:8 *118:Q 4
2 *42:7 *42:8 0.159379
3 *42:6 *42:7 4.82387
4 *42:5 *42:6 4
5 *42:4 *42:5 5.10012
6 *42:3 *42:4 4
7 *42:2 *42:3 0.552514
8 *42:1 *42:2 0.0106253
9 *100:B *42:1 4
*END

*D_NET *43 0.000819081

*CONN
*I *103:B1 I *C 27.9 18.145 *L 0.000865 *D AOI2BB2X1
*I *103:A1N I *C 26.94 17.89 *L 0.000573 *D AOI2BB2X1
*I *111:Q O *C 21.775 17.975 *L 0 *D DFFTRXL

*CAP
1 *43:1 1.45428e-05
2 *43:2 1.45428e-05
3 *43:3 6.18328e-05
4 *43:4 0.000383364
5 *43:5 2.90856e-07
6 *43:6 0.000321531
7 *43:7 2.6177e-06
8 *43:8 4.65369e-06
9 *43:9 2.32685e-06
10 *43:10 9.01653e-06
11 *43:12 4.36284e-06

*RES
1 *43:12 *111:Q 4
2 *43:10 *43:12 0.159379
3 *43:9 *103:A1N 4
4 *43:8 *43:10 0.170004
5 *43:7 *43:9 0.0850021
6 *43:6 *43:8 4
7 *43:5 *43:7 0.0106253
8 *43:4 *43:6 11.0503
9 *43:4 *43:5 4
10 *43:3 *43:4 2.12505
11 *43:2 *43:3 4
12 *43:1 *43:2 0.531263
13 *103:B1 *43:1 4
*END

*D_NET *67 0.000250946

*CONN
*I *102:B I *C 23.375 16.285 *L 0.000862 *D NOR2X1
*I *110:QN O *C 25.325 16.22 *L 0 *D DFFTRXL

*CAP
1 *67:1 4.1942e-06
2 *67:2 4.75343e-06
3 *67:3 5.59227e-07
4 *67:4 0.000115127
5 *67:5 0.000115127
6 *67:6 4.1942e-06
7 *67:7 5.59227e-06
8 *67:8 1.39807e-06

*RES
1 *67:8 *110:QN 4
2 *67:7 *67:8 0.0531263
3 *67:6 *67:7 0.159379
4 *67:5 *67:6 4
5 *67:4 *67:5 4.2501
6 *67:3 *67:4 4
7 *67:2 *67:3 0.0212505
8 *67:1 *67:2 0.159379
9 *102:B *67:1 4
*END

*D_NET *68 0.000429463

*CONN
*I *102:A I *C 23.1 15.865 *L 0.00082 *D NOR2X1
*I *111:QN O *C 21.125 17.6 *L 0 *D DFFTRXL

*CAP
1 *68:1 1.67768e-06
2 *68:2 1.67768e-06
3 *68:3 0.000115127
4 *68:4 0.000115127
5 *68:5 9.64724e-05
6 *68:6 9.79266e-05
7 *68:7 1.45428e-06

*RES
1 *68:7 *111:QN 4
2 *68:6 *68:7 0.0531263
3 *68:5 *68:6 3.62321
4 *68:4 *68:5 4
5 *68:3 *68:4 4.2501
6 *68:2 *68:3 4
7 *68:1 *68:2 0.0637516
8 *102:A *68:1 4
*END

*D_NET *69 0.000587092

*CONN
*I *101:RN I *C 25.39 19.45 *L 0.00055 *D DFFTRXL
*I *103:Y O *C 28.1 17.56 *L 0 *D AOI2BB2X1

*CAP
1 *69:1 5.2354e-06
2 *69:2 7.8531e-06
3 *69:3 2.6177e-06
4 *69:4 0.000173132
5 *69:5 0.000173132
6 *69:6 0.000112561
7 *69:7 0.000112561

*RES
1 *69:7 *103:Y 4
2 *69:6 *69:7 4.11198
3 *69:5 *69:6 4
4 *69:4 *69:5 5.95015
5 *69:3 *69:4 4
6 *69:2 *69:3 0.0956273
7 *69:1 *69:2 0.191255
8 *101:RN *69:1 4
*END

*D_NET *70 0.000175135

*CONN
*I *100:CI I *C 23.61 14.675 *L 0.00187 *D ADDFX1
*I *102:Y O *C 23.515 15.93 *L 0 *D NOR2X1

*CAP
1 *70:1 5.03304e-06
2 *70:2 6.15149e-06
3 *70:3 1.11845e-06
4 *70:4 1.15127e-05
5 *70:5 1.15127e-05
6 *70:6 6.90645e-05
7 *70:7 6.99033e-05
8 *70:8 8.3884e-07

*RES
1 *70:8 *102:Y 4
2 *70:7 *70:8 0.0318758
3 *70:6 *70:7 2.62444
4 *70:5 *70:6 4
5 *70:4 *70:5 0.42501
6 *70:3 *70:4 4
7 *70:2 *70:3 0.042501
8 *70:1 *70:2 0.191255
9 *100:CI *70:1 4
*END

*D_NET *71 0.000398217

*CONN
*I *98:CI I *C 18.81 14.675 *L 0.00187 *D ADDFX1
*I *100:CO O *C 21.33 13.705 *L 0 *D ADDFX1

*CAP
1 *71:1 5.03304e-06
2 *71:2 2.62836e-05
3 *71:3 2.12506e-05
4 *71:4 0.000138153
5 *71:5 0.000138153
6 *71:6 3.29944e-05
7 *71:7 3.4672e-05
8 *71:8 1.67768e-06

*RES
1 *71:8 *100:CO 4
2 *71:7 *71:8 0.0637516
3 *71:6 *71:7 1.25378
4 *71:5 *71:6 4
5 *71:4 *71:5 5.10012
6 *71:3 *71:4 4
7 *71:2 *71:3 0.80752
8 *71:1 *71:2 0.191255
9 *98:CI *71:1 4
*END

*D_NET *72 0.00023507

*CONN
*I *99:RN I *C 24.59 12.61 *L 0.00055 *D DFFTRXL
*I *100:S O *C 24.15 14.03 *L 0 *D ADDFX1

*CAP
1 *72:1 5.03304e-06
2 *72:2 9.78647e-06
3 *72:3 4.75343e-06
4 *72:4 1.15127e-05
5 *72:5 1.15127e-05
6 *72:6 7.82917e-05
7 *72:7 7.82917e-05
8 *72:8 1.15127e-05
9 *72:9 1.15127e-05
10 *72:10 3.63497e-06
11 *72:11 6.43111e-06
12 *72:12 2.79613e-06

*RES
1 *72:12 *100:S 4
2 *72:11 *72:12 0.106253
3 *72:10 *72:11 0.138128
4 *72:9 *72:10 4
5 *72:8 *72:9 0.42501
6 *72:7 *72:8 4
7 *72:6 *72:7 2.97507
8 *72:5 *72:6 4
9 *72:4 *72:5 0.42501
10 *72:3 *72:4 4
11 *72:2 *72:3 0.180629
12 *72:1 *72:2 0.191255
13 *99:RN *72:1 4
*END

*D_NET *73 0.000283671

*CONN
*I *96:CI I *C 16.41 15.725 *L 0.00187 *D ADDFX1
*I *98:CO O *C 16.53 13.705 *L 0 *D ADDFX1

*CAP
1 *73:1 4.98464e-06
2 *73:2 6.64619e-06
3 *73:3 1.66155e-06
4 *73:4 1.11022e-05
5 *73:5 1.11022e-05
6 *73:6 0.00011077
7 *73:7 0.00011077
8 *73:8 1.11022e-05
9 *73:9 1.11022e-05
10 *73:10 5.53849e-07
11 *73:11 2.2154e-06
12 *73:12 1.66155e-06

*RES
1 *73:12 *98:CO 4
2 *73:11 *73:12 0.0637516
3 *73:10 *73:11 0.0212505
4 *73:9 *73:10 4
5 *73:8 *73:9 0.42501
6 *73:7 *73:8 4
7 *73:6 *73:7 4.2501
8 *73:5 *73:6 4
9 *73:4 *73:5 0.42501
10 *73:3 *73:4 4
11 *73:2 *73:3 0.0637516
12 *73:1 *73:2 0.191255
13 *96:CI *73:1 4
*END

*D_NET *74 0.000707056

*CONN
*I *97:RN I *C 14.79 12.61 *L 0.00055 *D DFFTRXL
*I *98:S O *C 19.35 14.03 *L 0 *D ADDFX1

*CAP
1 *74:1 4.98464e-06
2 *74:2 8.72312e-05
3 *74:3 8.22465e-05
4 *74:4 0.000259866
5 *74:5 0.000259866
6 *74:6 3.63497e-06
7 *74:7 6.43111e-06
8 *74:8 2.79613e-06

*RES
1 *74:8 *98:S 4
2 *74:7 *74:8 0.106253
3 *74:6 *74:7 0.138128
4 *74:5 *74:6 4
5 *74:4 *74:5 9.77524
6 *74:3 *74:4 4
7 *74:2 *74:3 3.1557
8 *74:1 *74:2 0.191255
9 *97:RN *74:1 4
*END

*D_NET *75 0.000670896

*CONN
*I *94:CI I *C 13.01 21.515 *L 0.00187 *D ADDFX1
*I *96:CO O *C 14.13 16.695 *L 0 *D ADDFX1

*CAP
1 *75:1 5.09031e-06
2 *75:2 6.22149e-06
3 *75:3 1.13118e-06
4 *75:4 5.65574e-05
5 *75:5 5.65574e-05
6 *75:6 0.000271008
7 *75:7 0.000272669
8 *75:8 1.66155e-06

*RES
1 *75:8 *96:CO 4
2 *75:7 *75:8 0.0637516
3 *75:6 *75:7 10.2002
4 *75:5 *75:6 4
5 *75:4 *75:5 2.12505
6 *75:3 *75:4 4
7 *75:2 *75:3 0.042501
8 *75:1 *75:2 0.191255
9 *94:CI *75:1 4
*END

*D_NET *76 0.000536265

*CONN
*I *95:RN I *C 21.19 16.03 *L 0.00055 *D DFFTRXL
*I *96:S O *C 16.95 16.37 *L 0 *D ADDFX1

*CAP
1 *76:1 5.03304e-06
2 *76:2 1.98525e-05
3 *76:3 1.48195e-05
4 *76:4 0.000241357
5 *76:5 0.000241357
6 *76:6 4.15387e-06
7 *76:7 6.92311e-06
8 *76:8 2.76924e-06

*RES
1 *76:8 *96:S 4
2 *76:7 *76:8 0.106253
3 *76:6 *76:7 0.159379
4 *76:5 *76:6 4
5 *76:4 *76:5 8.92522
6 *76:3 *76:4 4
7 *76:2 *76:3 0.563139
8 *76:1 *76:2 0.191255
9 *95:RN *76:1 4
*END

*D_NET *77 0.00180745

*CONN
*I *92:CI I *C 23.81 22.565 *L 0.00187 *D ADDFX1
*I *94:CO O *C 10.73 20.545 *L 0 *D ADDFX1

*CAP
1 *77:1 5.2354e-06
2 *77:2 9.30738e-06
3 *77:3 4.07198e-06
4 *77:4 0.000782431
5 *77:5 0.000782431
6 *77:6 0.00011029
7 *77:7 0.000111987
8 *77:8 1.69677e-06

*RES
1 *77:8 *94:CO 4
2 *77:7 *77:8 0.0637516
3 *77:6 *77:7 4.14385
4 *77:5 *77:6 4
5 *77:4 *77:5 28.0507
6 *77:3 *77:4 4
7 *77:2 *77:3 0.148754
8 *77:1 *77:2 0.191255
9 *92:CI *77:1 4
*END

*D_NET *78 0.000317858

*CONN
*I *93:RN I *C 14.79 19.45 *L 0.00055 *D DFFTRXL
*I *94:S O *C 13.55 20.87 *L 0 *D ADDFX1

*CAP
1 *78:1 5.09031e-06
2 *78:2 7.63546e-06
3 *78:3 2.54515e-06
4 *78:4 2.2623e-05
5 *78:5 2.2623e-05
6 *78:6 7.91826e-05
7 *78:7 7.91826e-05
8 *78:8 4.52459e-05
9 *78:9 4.52459e-05
10 *78:10 1.41397e-06
11 *78:11 4.24192e-06
12 *78:12 2.82795e-06

*RES
1 *78:12 *94:S 4
2 *78:11 *78:12 0.106253
3 *78:10 *78:11 0.0531263
4 *78:9 *78:10 4
5 *78:8 *78:9 1.70004
6 *78:7 *78:8 4
7 *78:6 *78:7 2.97507
8 *78:5 *78:6 4
9 *78:4 *78:5 0.850021
10 *78:3 *78:4 4
11 *78:2 *78:3 0.0956273
12 *78:1 *78:2 0.191255
13 *93:RN *78:1 4
*END

*D_NET *79 0.000595797

*CONN
*I *90:CI I *C 23.81 25.985 *L 0.00187 *D ADDFX1
*I *92:CO O *C 21.53 23.535 *L 0 *D ADDFX1

*CAP
1 *79:1 5.2354e-06
2 *79:2 1.04708e-05
3 *79:3 5.2354e-06
4 *79:4 0.000148399
5 *79:5 0.000148399
6 *79:6 0.000137284
7 *79:7 0.000139029
8 *79:8 1.74513e-06

*RES
1 *79:8 *92:CO 4
2 *79:7 *79:8 0.0637516
3 *79:6 *79:7 5.01512
4 *79:5 *79:6 4
5 *79:4 *79:5 5.10012
6 *79:3 *79:4 4
7 *79:2 *79:3 0.191255
8 *79:1 *79:2 0.191255
9 *90:CI *79:1 4
*END

*D_NET *80 0.000367683

*CONN
*I *91:RN I *C 25.19 21.21 *L 0.00055 *D DFFTRXL
*I *92:S O *C 24.35 23.21 *L 0 *D ADDFX1

*CAP
1 *80:1 5.2354e-06
2 *80:2 1.01799e-05
3 *80:3 4.94455e-06
4 *80:4 2.47331e-05
5 *80:5 2.47331e-05
6 *80:6 0.000116342
7 *80:7 0.000116342
8 *80:8 2.47331e-05
9 *80:9 2.47331e-05
10 *80:10 4.94455e-06
11 *80:11 7.8531e-06
12 *80:12 2.90856e-06

*RES
1 *80:12 *92:S 4
2 *80:11 *80:12 0.106253
3 *80:10 *80:11 0.180629
4 *80:9 *80:10 4
5 *80:8 *80:9 0.850021
6 *80:7 *80:8 4
7 *80:6 *80:7 4.2501
8 *80:5 *80:6 4
9 *80:4 *80:5 0.850021
10 *80:3 *80:4 4
11 *80:2 *80:3 0.180629
12 *80:1 *80:2 0.191255
13 *91:RN *80:1 4
*END

*D_NET *81 0.000448344

*CONN
*I *88:CI I *C 18.81 25.985 *L 0.00187 *D ADDFX1
*I *90:CO O *C 21.53 26.955 *L 0 *D ADDFX1

*CAP
1 *81:1 5.2354e-06
2 *81:2 3.49027e-05
3 *81:3 2.96673e-05
4 *81:4 0.000160765
5 *81:5 0.000160765
6 *81:6 2.67587e-05
7 *81:7 2.85039e-05
8 *81:8 1.74513e-06

*RES
1 *81:8 *90:CO 4
2 *81:7 *81:8 0.0637516
3 *81:6 *81:7 0.977524
4 *81:5 *81:6 4
5 *81:4 *81:5 5.52514
6 *81:3 *81:4 4
7 *81:2 *81:3 1.08378
8 *81:1 *81:2 0.191255
9 *88:CI *81:1 4
*END

*D_NET *82 0.000241431

*CONN
*I *89:RN I *C 24.79 28.05 *L 0.00055 *D DFFTRXL
*I *90:S O *C 24.35 26.63 *L 0 *D ADDFX1

*CAP
1 *82:1 5.2354e-06
2 *82:2 7.8531e-06
3 *82:3 2.6177e-06
4 *82:4 1.23666e-05
5 *82:5 1.23666e-05
6 *82:6 8.14396e-05
7 *82:7 8.14396e-05
8 *82:8 1.23666e-05
9 *82:9 1.23666e-05
10 *82:10 3.78112e-06
11 *82:11 6.68968e-06
12 *82:12 2.90856e-06

*RES
1 *82:12 *90:S 4
2 *82:11 *82:12 0.106253
3 *82:10 *82:11 0.138128
4 *82:9 *82:10 4
5 *82:8 *82:9 0.42501
6 *82:7 *82:8 4
7 *82:6 *82:7 2.97507
8 *82:5 *82:6 4
9 *82:4 *82:5 0.42501
10 *82:3 *82:4 4
11 *82:2 *82:3 0.0956273
12 *82:1 *82:2 0.191255
13 *89:RN *82:1 4
*END

*D_NET *83 0.000558613

*CONN
*I *86:RN I *C 19.59 28.05 *L 0.00055 *D DFFTRXL
*I *88:CO O *C 16.53 26.955 *L 0 *D ADDFX1

*CAP
1 *83:1 5.2354e-06
2 *83:2 1.94873e-05
3 *83:3 1.42519e-05
4 *83:4 0.000182333
5 *83:5 0.000182333
6 *83:6 7.5789e-05
7 *83:7 7.74858e-05
8 *83:8 1.69677e-06

*RES
1 *83:8 *88:CO 4
2 *83:7 *83:8 0.0637516
3 *83:6 *83:7 2.84757
4 *83:5 *83:6 4
5 *83:4 *83:5 6.37516
6 *83:3 *83:4 4
7 *83:2 *83:3 0.520638
8 *83:1 *83:2 0.191255
9 *86:RN *83:1 4
*END

*D_NET *84 0.000792013

*CONN
*I *87:RN I *C 14.79 24.63 *L 0.00055 *D DFFTRXL
*I *88:S O *C 19.35 26.63 *L 0 *D ADDFX1

*CAP
1 *84:1 5.09031e-06
2 *84:2 8.76664e-06
3 *84:3 3.67633e-06
4 *84:4 0.00027177
5 *84:5 0.00027177
6 *84:6 0.000112561
7 *84:7 0.00011547
8 *84:8 2.90856e-06

*RES
1 *84:8 *88:S 4
2 *84:7 *84:8 0.106253
3 *84:6 *84:7 4.11198
4 *84:5 *84:6 4
5 *84:4 *84:5 9.77524
6 *84:3 *84:4 4
7 *84:2 *84:3 0.138128
8 *84:1 *84:2 0.191255
9 *87:RN *84:1 4
*END

*D_NET *85 0.00965732

*CONN
*I *97:D I *C 14.97 12.66 *L 0.00056 *D DFFTRXL
*I *109:D I *C 15.17 14.32 *L 0.00056 *D DFFTRXL
*I *107:D I *C 15.17 17.74 *L 0.00056 *D DFFTRXL
*I *93:D I *C 14.97 19.5 *L 0.00056 *D DFFTRXL
*I *119:D I *C 15.17 22.92 *L 0.00056 *D DFFTRXL
*I *117:D I *C 20.17 24.58 *L 0.00056 *D DFFTRXL
*I *87:D I *C 14.97 24.58 *L 0.00056 *D DFFTRXL
*I *112:D I *C 20.17 19.5 *L 0.00056 *D DFFTRXL
*I *106:D I *C 20.37 22.92 *L 0.00056 *D DFFTRXL
*I *89:D I *C 24.97 28 *L 0.00056 *D DFFTRXL
*I *86:D I *C 19.77 28 *L 0.00056 *D DFFTRXL
*I *116:D I *C 14.97 26.34 *L 0.00056 *D DFFTRXL
*I *105:D I *C 29.57 24.58 *L 0.00056 *D DFFTRXL
*I *104:D I *C 18.97 21.16 *L 0.00056 *D DFFTRXL
*I *113:D I *C 29.57 22.92 *L 0.00056 *D DFFTRXL
*I *120:Y O *C 20.33 17.33 *L 0 *D INVX1
*I *115:D I *C 29.77 26.34 *L 0.00056 *D DFFTRXL
*I *95:D I *C 21.37 16.08 *L 0.00056 *D DFFTRXL
*I *111:D I *C 25.17 17.74 *L 0.00056 *D DFFTRXL
*I *91:D I *C 25.37 21.16 *L 0.00056 *D DFFTRXL
*I *101:D I *C 25.57 19.5 *L 0.00056 *D DFFTRXL
*I *110:D I *C 29.37 16.08 *L 0.00056 *D DFFTRXL
*I *99:D I *C 24.77 12.66 *L 0.00056 *D DFFTRXL
*I *108:D I *C 29.57 14.32 *L 0.00056 *D DFFTRXL
*I *118:D I *C 29.57 12.66 *L 0.00056 *D DFFTRXL
*I *114:D I *C 19.77 12.66 *L 0.00056 *D DFFTRXL

*CAP
1 *85:1 3.87694e-06
2 *85:2 9.44312e-05
3 *85:3 9.05543e-05
4 *85:4 1.11022e-05
5 *85:5 2.22043e-05
6 *85:6 1.11022e-05
7 *85:7 1.38462e-06
8 *85:8 0.000189007
9 *85:9 5.26156e-06
10 *85:10 0.000189007
11 *85:11 3.87694e-06
12 *85:12 1.13115e-05
13 *85:14 2.2623e-05
14 *85:15 2.54515e-06
15 *85:16 1.13115e-05
16 *85:17 6.50428e-06
17 *85:18 0.000102089
18 *85:19 3.95913e-06
19 *85:20 0.000298066
20 *85:22 0.000192018
21 *85:23 3.95913e-06
22 *85:24 1.13115e-05
23 *85:26 0.000297558
24 *85:27 0.000286247
25 *85:28 1.41397e-06
26 *85:29 1.16342e-05
27 *85:30 9.44535e-05
28 *85:31 0.00030249
29 *85:32 0.000190887
30 *85:33 3.95913e-06
31 *85:34 1.23666e-05
32 *85:35 0.000290856
33 *85:36 0.000101806
34 *85:37 1.13115e-05
35 *85:39 2.47331e-05
36 *85:40 0.000321531
37 *85:41 1.13115e-05
38 *85:42 1.13115e-05
39 *85:43 0.000202726
40 *85:44 1.23666e-05
41 *85:45 0.000593595
42 *85:46 1.23666e-05
43 *85:47 1.13115e-05
44 *85:48 4.80751e-06
45 *85:49 9.04561e-05
46 *85:50 0.000209125
47 *85:51 1.01799e-05
48 *85:52 0.000284431
49 *85:53 5.52626e-06
50 *85:54 5.52626e-06
51 *85:55 2.54515e-06
52 *85:56 8.76664e-06
53 *85:57 4.07198e-06
54 *85:58 7.41994e-05
55 *85:59 0.000225122
56 *85:60 1.42519e-05
57 *85:61 0.000104708
58 *85:62 9.59824e-06
59 *85:63 9.59824e-06
60 *85:64 6.50428e-06
61 *85:65 3.95913e-06
62 *85:67 7.41994e-05
63 *85:68 4.07198e-06
64 *85:69 0.000128267
65 *85:70 4.07198e-06
66 *85:71 0.000204472
67 *85:72 4.07198e-06
68 *85:73 4.07198e-06
69 *85:74 3.95913e-06
70 *85:76 3.78112e-06
71 *85:78 1.23666e-05
72 *85:80 1.23666e-05
73 *85:81 0.0002004
74 *85:85 7.8531e-06
75 *85:86 7.41994e-05
76 *85:87 1.23666e-05
77 *85:88 4.07198e-06
78 *85:89 0.000100636
79 *85:90 4.07198e-06
80 *85:91 2.03599e-06
81 *85:92 6.18328e-05
82 *85:93 2.6177e-06
83 *85:95 4.07198e-06
84 *85:97 3.78112e-06
85 *85:98 0.000114921
86 *85:99 6.68968e-06
87 *85:101 1.74513e-06
88 *85:102 4.65369e-05
89 *85:103 7.22991e-05
90 *85:104 4.07198e-06
91 *85:106 0.000222598
92 *85:107 3.91459e-06
93 *85:109 0.000234965
94 *85:111 1.23666e-05
95 *85:112 9.30738e-05
96 *85:113 2.06508e-05
97 *85:114 9.30738e-05
98 *85:115 0.000297107
99 *85:116 2.47331e-05
100 *85:117 4.07198e-06
101 *85:118 0.000272384
102 *85:119 3.70997e-05
103 *85:121 0.000264793
104 *85:122 1.23666e-05
105 *85:123 8.52207e-05
106 *85:124 0.00025328
107 *85:125 2.30255e-05
108 *85:126 1.13434e-05
109 *85:127 8.92927e-05
110 *85:128 1.15127e-05
111 *85:129 0.000178114
112 *85:130 1.31418e-05
113 *85:131 1.54154e-05
114 *85:132 4.07198e-06
115 *85:133 9.28316e-05
116 *85:134 0.000182028
117 *85:135 2.62836e-05
118 *85:136 4.07198e-06
119 *85:138 8.36044e-05
120 *85:139 1.70564e-05
121 *85:140 3.91459e-06
122 *85:141 3.91459e-06
123 *85:142 9.22724e-06
124 *85:144 3.91459e-06
125 *85:145 3.91459e-06
126 *85:148 0.000287818
127 *85:151 0.000287818
128 *85:152 9.22724e-06
129 *85:153 1.31418e-05
130 *85:154 3.91459e-06

*RES
1 *85:154 *114:D 4
2 *85:153 *85:154 0.148754
3 *85:152 *85:153 0.350634
4 *85:151 *85:152 4
5 *85:148 *85:151 10.6253
6 *85:145 *118:D 4
7 *85:144 *108:D 4
8 *85:142 *85:148 4
9 *85:141 *99:D 4
10 *85:140 *110:D 4
11 *85:139 *85:145 0.148754
12 *85:138 *85:144 0.148754
13 *85:136 *101:D 4
14 *85:135 *85:142 0.350634
15 *85:135 *85:141 0.148754
16 *85:134 *85:140 0.148754
17 *85:133 *85:139 0.499387
18 *85:133 *85:138 3.0282
19 *85:132 *91:D 4
20 *85:131 *85:136 0.148754
21 *85:130 *85:135 0.499387
22 *85:129 *85:134 6.76829
23 *85:128 *85:133 4
24 *85:127 *85:132 0.148754
25 *85:126 *85:131 0.414385
26 *85:125 *85:130 4
27 *85:124 *85:129 4
28 *85:124 *85:128 0.42501
29 *85:123 *85:127 3.1132
30 *85:122 *85:126 4
31 *85:121 *85:125 0.850021
32 *85:121 *85:124 8.92522
33 *85:119 *85:123 4
34 *85:119 *85:122 0.42501
35 *85:118 *85:121 4
36 *85:117 *111:D 4
37 *85:116 *85:119 0.850021
38 *85:115 *85:118 10.2959
39 *85:115 *85:117 0.148754
40 *85:114 *85:116 4
41 *85:113 *85:115 0.754393
42 *85:112 *85:114 3.40008
43 *85:111 *85:113 4
44 *85:109 *85:112 4
45 *85:109 *85:111 0.42501
46 *85:107 *95:D 4
47 *85:106 *85:109 7.65019
48 *85:104 *115:D 4
49 *85:103 *85:107 0.148754
50 *85:102 *85:106 4
51 *85:101 *120:Y 4
52 *85:99 *85:104 0.148754
53 *85:98 *85:103 2.58194
54 *85:98 *85:102 1.70004
55 *85:97 *85:101 0.0637516
56 *85:95 *113:D 4
57 *85:93 *85:99 0.0956273
58 *85:92 *85:98 4
59 *85:91 *85:97 0.0743768
60 *85:90 *104:D 4
61 *85:89 *85:95 0.148754
62 *85:88 *105:D 4
63 *85:87 *85:93 4
64 *85:86 *85:92 2.12505
65 *85:86 *85:91 4
66 *85:85 *85:90 0.148754
67 *85:81 *85:89 3.52759
68 *85:81 *85:88 0.148754
69 *85:80 *85:87 0.42501
70 *85:78 *85:86 0.42501
71 *85:76 *85:85 0.138128
72 *85:74 *116:D 4
73 *85:73 *86:D 4
74 *85:72 *89:D 4
75 *85:71 *85:81 3.64446
76 *85:71 *85:80 4
77 *85:70 *106:D 4
78 *85:69 *85:78 4
79 *85:68 *112:D 4
80 *85:67 *85:76 4
81 *85:65 *87:D 4
82 *85:64 *85:74 0.148754
83 *85:63 *85:73 0.148754
84 *85:62 *85:72 0.148754
85 *85:61 *85:71 3.82509
86 *85:60 *85:70 0.148754
87 *85:59 *85:69 4.68574
88 *85:59 *85:68 0.148754
89 *85:58 *85:67 2.55006
90 *85:57 *117:D 4
91 *85:56 *85:65 0.148754
92 *85:55 *85:64 0.0956273
93 *85:54 *85:63 0.20188
94 *85:53 *85:62 0.20188
95 *85:52 *85:61 4
96 *85:51 *85:60 0.371884
97 *85:50 *85:59 3.38946
98 *85:50 *85:58 4
99 *85:49 *85:57 0.148754
100 *85:48 *85:56 0.180629
101 *85:47 *85:55 4
102 *85:46 *85:54 4
103 *85:45 *85:53 4
104 *85:45 *85:52 9.77524
105 *85:44 *85:51 4
106 *85:43 *85:50 4.2501
107 *85:43 *85:49 3.1557
108 *85:42 *85:48 4
109 *85:41 *85:47 0.42501
110 *85:40 *85:46 0.42501
111 *85:40 *85:45 10.6253
112 *85:39 *85:44 0.42501
113 *85:39 *85:43 4
114 *85:37 *85:42 0.42501
115 *85:36 *85:41 4
116 *85:35 *85:40 4
117 *85:34 *85:39 0.42501
118 *85:33 *119:D 4
119 *85:32 *85:37 4
120 *85:32 *85:36 3.82509
121 *85:31 *85:35 10.6253
122 *85:31 *85:34 4
123 *85:30 *85:33 0.148754
124 *85:30 *85:32 3.34696
125 *85:29 *85:31 0.42501
126 *85:28 *85:30 0.0531263
127 *85:27 *85:29 4
128 *85:26 *85:28 4
129 *85:26 *85:27 10.2002
130 *85:24 *85:26 0.42501
131 *85:23 *93:D 4
132 *85:22 *85:24 4
133 *85:20 *85:23 0.148754
134 *85:20 *85:22 7.21455
135 *85:19 *107:D 4
136 *85:18 *85:20 3.83572
137 *85:17 *85:19 0.148754
138 *85:16 *85:18 4
139 *85:15 *85:17 0.0956273
140 *85:14 *85:16 0.42501
141 *85:14 *85:15 4
142 *85:12 *85:14 0.42501
143 *85:11 *109:D 4
144 *85:10 *85:12 4
145 *85:9 *85:11 0.148754
146 *85:8 *85:10 7.22518
147 *85:7 *85:9 0.0531263
148 *85:6 *85:8 4
149 *85:5 *85:7 4
150 *85:5 *85:6 0.42501
151 *85:4 *85:5 0.42501
152 *85:3 *85:4 4
153 *85:2 *85:3 3.47446
154 *85:1 *85:2 0.148754
155 *97:D *85:1 4
*END

